mixintcount/benchmarks/random_v2l/6_6_398.smt2
(set-logic QF_LIA)
(set-info :ran/ran2.smt2)
(set-info :smt-lib-version 2.0)
(declare-fun x1 () Int)
(declare-fun x2 () Int)
(declare-fun x3 () Int)
(declare-fun x4 () Int)
(declare-fun x5 () Int)
(declare-fun x6 () Int)
(assert (<= (+ (* (- 3) x1) (* (- 6) x2) (* 7 x3) (* (- 3) x4) (* 10 x5) (* 0 x6) ) (- 316)))
(assert (<= (+ (* (- 5) x1) (* (- 7) x2) (* 5 x3) (* 4 x4) (* 9 x5) (* (- 7) x6) ) 151))
(assert (<= (+ (* 9 x1) (* (- 2) x2) (* (- 5) x3) (* (- 4) x4) (* 7 x5) (* (- 10) x6) ) (- 359)))
(assert (<= (+ (* 10 x1) (* (- 2) x2) (* (- 3) x3) (* 0 x4) (* 5 x5) (* (- 2) x6) ) 151))
(assert (<= (+ (* 10 x1) (* 0 x2) (* 6 x3) (* (- 6) x4) (* 2 x5) (* 0 x6) ) 391))
(assert (<= (+ (* 2 x1) (* (- 10) x2) (* 8 x3) (* 5 x4) (* (- 9) x5) (* 2 x6) ) 24))
(assert (<= (+ (* 10 x1) (* 6 x2) (* (- 4) x3) (* 6 x4) (* (- 9) x5) (* 2 x6) ) 315))
(assert (<= (+ (* 6 x1) (* 0 x2) (* 0 x3) (* 5 x4) (* 9 x5) (* 5 x6) ) (- 198)))
(assert (<= (+ (* 1 x1) (* (- 8) x2) (* 4 x3) (* (- 2) x4) (* 1 x5) (* (- 3) x6) ) 296))
(assert (<= (+ (* (- 10) x1) (* 8 x2) (* (- 9) x3) (* 0 x4) (* 6 x5) (* 9 x6) ) 380))
(assert (<= (+ (* 7 x1) (* (- 2) x2) (* 1 x3) (* 4 x4) (* (- 7) x5) (* 7 x6) ) (- 147)))
(assert (<= (+ (* (- 7) x1) (* (- 4) x2) (* (- 1) x3) (* 7 x4) (* 7 x5) (* 7 x6) ) (- 292)))
(assert (<= (+ (* 1 x1) (* 0 x2) (* 0 x3) (* 0 x4) (* 0 x5) (* 0 x6) ) 398))
(assert (<= (+ (* (- 1) x1) (* 0 x2) (* 0 x3) (* 0 x4) (* 0 x5) (* 0 x6) ) 398))
(assert (<= (+ (* 0 x1) (* 1 x2) (* 0 x3) (* 0 x4) (* 0 x5) (* 0 x6) ) 398))
(assert (<= (+ (* 0 x1) (* (- 1) x2) (* 0 x3) (* 0 x4) (* 0 x5) (* 0 x6) ) 398))
(assert (<= (+ (* 0 x1) (* 0 x2) (* 1 x3) (* 0 x4) (* 0 x5) (* 0 x6) ) 398))
(assert (<= (+ (* 0 x1) (* 0 x2) (* (- 1) x3) (* 0 x4) (* 0 x5) (* 0 x6) ) 398))
(assert (<= (+ (* 0 x1) (* 0 x2) (* 0 x3) (* 1 x4) (* 0 x5) (* 0 x6) ) 398))
(assert (<= (+ (* 0 x1) (* 0 x2) (* 0 x3) (* (- 1) x4) (* 0 x5) (* 0 x6) ) 398))
(assert (<= (+ (* 0 x1) (* 0 x2) (* 0 x3) (* 0 x4) (* 1 x5) (* 0 x6) ) 398))
(assert (<= (+ (* 0 x1) (* 0 x2) (* 0 x3) (* 0 x4) (* (- 1) x5) (* 0 x6) ) 398))
(assert (<= (+ (* 0 x1) (* 0 x2) (* 0 x3) (* 0 x4) (* 0 x5) (* 1 x6) ) 398))
(assert (<= (+ (* 0 x1) (* 0 x2) (* 0 x3) (* 0 x4) (* 0 x5) (* (- 1) x6) ) 398))
