mixintcount/benchmarks/random_v2l/6_6_398.in
24 8
#	x1	x2	x3	x4	x5	x6;		0 = Real; 1 = Integer
	1	1	1	1	1	1
1	-3	-6	7	-3	10	0	-316
1	-5	-7	5	4	9	-7	151
1	9	-2	-5	-4	7	-10	-359
1	10	-2	-3	0	5	-2	151
1	10	0	6	-6	2	0	391
1	2	-10	8	5	-9	2	24
1	10	6	-4	6	-9	2	315
1	6	0	0	5	9	5	-198
1	1	-8	4	-2	1	-3	296
1	-10	8	-9	0	6	9	380
1	7	-2	1	4	-7	7	-147
1	-7	-4	-1	7	7	7	-292
1	1	0	0	0	0	0	398
1	-1	0	0	0	0	0	398
1	0	1	0	0	0	0	398
1	0	-1	0	0	0	0	398
1	0	0	1	0	0	0	398
1	0	0	-1	0	0	0	398
1	0	0	0	1	0	0	398
1	0	0	0	-1	0	0	398
1	0	0	0	0	1	0	398
1	0	0	0	0	-1	0	398
1	0	0	0	0	0	1	398
1	0	0	0	0	0	-1	398
